85 
300 
19.1 24.3 0 0
18.2 24 0 -12
12.6 24.9 20 -21
14.4 28 -20 -113
16.9 28.1 20 -12
20.7 28.2 -20 -83
12.5 26.6 -20 -74
21.8 27.3 -20 -126
12.5 22.6 -20 -63
22.5 17 -30 -127
19.9 15 30 -14
14.9 15.1 30 -11
11.5 18.6 30 -25
12.4 29.8 30 -15
17.8 28.1 -30 -122
9.1 29.8 -40 -89
10 32.6 40 -24
13.9 33.1 40 -17
19.95 10.3 -40 -100
15.2 8 -40 -80
14.7 31.2 -50 -91
7.4 36.5 -50 -105
21 25.5 -50 -118
18 25.3 -10 -138
19.5 24.7 10 -26
21.4 21.8 -10 -61
16 21.4 10 -25
18.65 26.2 -10 -126
17.9 28.9 10 -21
14.3 19.9 20 -12
17 19 20 -25
10.8 21 -20 -135
15.7 23.7 -10 -139
